networks/zoo_70_953/zoo_70_953.txt
Number of groups: 35
Flow 7: {1 28} {28 5} {5 9} {9 44} 
Flow 35: {2 28} {28 6} {6 41} 
Flow 82: {3 30} {30 31} {31 66} 
Flow 101: {4 28} {28 29} {29 16} {16 51} 
Flow 123: {5 28} {28 8} {8 43} 
Flow 139: {6 28} {28 1} {1 36} 
Flow 173: {7 28} {28 4} {4 39} 
Flow 185: {18 29} {29 17} {17 52} 
Flow 187: {29 19} {19 54} 
Flow 213: {8 28} {28 21} {21 56} 
Flow 227: {9 5} {5 40} 
Flow 269: {10 28} {28 20} {20 55} 
Flow 294: {11 29} {29 12} {12 47} 
Flow 337: {12 29} {29 30} {30 26} {26 61} 
Flow 347: {28 63} 
Flow 348: {13 29} {29 64} 
Flow 363: {14 29} {29 22} {22 57} 
Flow 382: {15 29} {29 11} {11 46} 
Flow 395: {16 29} {29 28} {28 2} {2 37} 
Flow 409: {17 29} {29 18} {18 7} {7 27} {27 62} 
Flow 464: {19 29} {29 23} {23 58} 
Flow 482: {20 28} {28 7} {7 42} 
Flow 515: {21 28} {28 10} {10 45} 
Flow 557: {22 29} {29 24} {24 59} 
Flow 580: {23 29} {29 13} {13 48} 
Flow 619: {24 29} {29 25} {25 60} 
Flow 643: {25 29} {29 15} {15 50} 
Flow 688: {26 27} {27 31} {31 32} {32 67} 
Flow 694: {27 26} {26 30} {30 3} {3 38} 
Flow 723: {30 34} {34 69} 
Flow 871: {31 27} {27 7} {7 18} {18 53} 
Flow 884: {32 31} {31 30} {30 33} {33 68} 
Flow 892: {33 30} {30 65} 
Flow 923: {34 30} {30 35} {35 70} 
Flow 936: {35 30} {30 29} {29 14} {14 49} 
Time taken running everything: 6 seconds
