networks/zoo_70_953/zoo_70_953.sol
<?xml version = "1.0" encoding="UTF-8" standalone="yes"?>
<CPLEXSolution version="1.2">
 <header
   problemName="networks/zoo_70_953/zoo_70_953.lp"
   solutionName="incumbent"
   solutionIndex="-1"
   objectiveValue="35"
   solutionTypeValue="3"
   solutionTypeString="primal"
   solutionStatusValue="101"
   solutionStatusString="integer optimal solution"
   solutionMethodString="mip"
   primalFeasible="1"
   dualFeasible="1"
   MIPNodes="0"
   MIPIterations="2824"
   writeLevel="3"/>
 <quality
   epInt="1.0000000000000001e-05"
   epRHS="9.9999999999999995e-07"
   maxIntInfeas="0"
   maxPrimalInfeas="0"
   maxX="4"
   maxSlack="10"/>
 <variables>
  <variable name="Y(7,9)" index="428" value="1"/>
  <variable name="Y(35,6)" index="2385" value="1"/>
  <variable name="Y(82,31)" index="5700" value="1"/>
  <variable name="Y(101,16)" index="7015" value="1"/>
  <variable name="Y(123,8)" index="8547" value="1"/>
  <variable name="Y(139,1)" index="9660" value="1"/>
  <variable name="Y(173,4)" index="12043" value="1"/>
  <variable name="Y(185,17)" index="12896" value="1"/>
  <variable name="Y(187,19)" index="13038" value="1"/>
  <variable name="Y(213,21)" index="14860" value="1"/>
  <variable name="Y(227,5)" index="15824" value="1"/>
  <variable name="Y(269,20)" index="18779" value="1"/>
  <variable name="Y(294,12)" index="20521" value="1"/>
  <variable name="Y(337,26)" index="23545" value="1"/>
  <variable name="Y(347,28)" index="24247" value="1"/>
  <variable name="Y(348,29)" index="24318" value="1"/>
  <variable name="Y(363,22)" index="25361" value="1"/>
  <variable name="Y(382,11)" index="26680" value="1"/>
  <variable name="Y(395,2)" index="27581" value="1"/>
  <variable name="Y(409,27)" index="28586" value="1"/>
  <variable name="Y(464,23)" index="32432" value="1"/>
  <variable name="Y(482,7)" index="33676" value="1"/>
  <variable name="Y(515,10)" index="35989" value="1"/>
  <variable name="Y(557,24)" index="38943" value="1"/>
  <variable name="Y(580,13)" index="40542" value="1"/>
  <variable name="Y(619,25)" index="43284" value="1"/>
  <variable name="Y(643,15)" index="44954" value="1"/>
  <variable name="Y(688,32)" index="48121" value="1"/>
  <variable name="Y(694,3)" index="48512" value="1"/>
  <variable name="Y(723,34)" index="50573" value="1"/>
  <variable name="Y(871,18)" index="60917" value="1"/>
  <variable name="Y(884,33)" index="61842" value="1"/>
  <variable name="Y(892,30)" index="62399" value="1"/>
  <variable name="Y(923,35)" index="64574" value="1"/>
  <variable name="Y(936,14)" index="65463" value="1"/>
  <variable name="X(1,28,7)" index="66716" value="1"/>
  <variable name="X(1,36,139)" index="67801" value="1"/>
  <variable name="X(2,28,35)" index="68650" value="1"/>
  <variable name="X(2,37,395)" index="69963" value="1"/>
  <variable name="X(3,30,82)" index="70603" value="1"/>
  <variable name="X(3,38,694)" index="72168" value="1"/>
  <variable name="X(4,28,101)" index="72528" value="1"/>
  <variable name="X(4,39,173)" index="73553" value="1"/>
  <variable name="X(5,9,7)" index="74340" value="1"/>
  <variable name="X(5,28,123)" index="75409" value="1"/>
  <variable name="X(5,40,227)" index="76466" value="1"/>
  <variable name="X(6,28,139)" index="77331" value="1"/>
  <variable name="X(6,41,35)" index="78180" value="1"/>
  <variable name="X(7,18,871)" index="79969" value="1"/>
  <variable name="X(7,27,409)" index="80460" value="1"/>
  <variable name="X(7,28,173)" index="81177" value="1"/>
  <variable name="X(7,42,482)" index="82439" value="1"/>
  <variable name="X(8,28,213)" index="83123" value="1"/>
  <variable name="X(8,43,123)" index="83986" value="1"/>
  <variable name="X(9,5,227)" index="85043" value="1"/>
  <variable name="X(9,44,7)" index="85776" value="1"/>
  <variable name="X(10,28,269)" index="86991" value="1"/>
  <variable name="X(10,45,515)" index="88190" value="1"/>
  <variable name="X(11,29,294)" index="88922" value="1"/>
  <variable name="X(11,46,382)" index="89963" value="1"/>
  <variable name="X(12,29,337)" index="90871" value="1"/>
  <variable name="X(12,47,294)" index="91781" value="1"/>
  <variable name="X(13,29,348)" index="92788" value="1"/>
  <variable name="X(13,48,580)" index="93973" value="1"/>
  <variable name="X(14,29,363)" index="94709" value="1"/>
  <variable name="X(14,49,936)" index="96235" value="1"/>
  <variable name="X(15,29,382)" index="96634" value="1"/>
  <variable name="X(15,50,643)" index="97848" value="1"/>
  <variable name="X(16,29,395)" index="98553" value="1"/>
  <variable name="X(16,51,101)" index="99212" value="1"/>
  <variable name="X(17,29,409)" index="100473" value="1"/>
  <variable name="X(17,52,185)" index="101202" value="1"/>
  <variable name="X(18,7,409)" index="102379" value="1"/>
  <variable name="X(18,29,185)" index="103108" value="1"/>
  <variable name="X(18,53,871)" index="104747" value="1"/>
  <variable name="X(19,29,464)" index="105293" value="1"/>
  <variable name="X(19,54,187)" index="105969" value="1"/>
  <variable name="X(20,28,482)" index="107217" value="1"/>
  <variable name="X(20,55,269)" index="107957" value="1"/>
  <variable name="X(21,28,515)" index="109156" value="1"/>
  <variable name="X(21,56,213)" index="109807" value="1"/>
  <variable name="X(22,29,557)" index="111104" value="1"/>
  <variable name="X(22,57,363)" index="111863" value="1"/>
  <variable name="X(23,29,580)" index="113033" value="1"/>
  <variable name="X(23,58,464)" index="113870" value="1"/>
  <variable name="X(24,29,619)" index="114978" value="1"/>
  <variable name="X(24,59,557)" index="115869" value="1"/>
  <variable name="X(25,29,643)" index="116908" value="1"/>
  <variable name="X(25,60,619)" index="117837" value="1"/>
  <variable name="X(26,27,688)" index="118859" value="1"/>
  <variable name="X(26,30,694)" index="119818" value="1"/>
  <variable name="X(26,61,337)" index="120414" value="1"/>
  <variable name="X(27,7,871)" index="121901" value="1"/>
  <variable name="X(27,26,694)" index="122677" value="1"/>
  <variable name="X(27,31,688)" index="123624" value="1"/>
  <variable name="X(27,62,409)" index="124298" value="1"/>
  <variable name="X(28,1,139)" index="124981" value="1"/>
  <variable name="X(28,2,395)" index="126190" value="1"/>
  <variable name="X(28,4,173)" index="126921" value="1"/>
  <variable name="X(28,5,7)" index="127708" value="1"/>
  <variable name="X(28,6,35)" index="128689" value="1"/>
  <variable name="X(28,7,482)" index="130089" value="1"/>
  <variable name="X(28,8,123)" index="130683" value="1"/>
  <variable name="X(28,10,515)" index="132028" value="1"/>
  <variable name="X(28,20,269)" index="132735" value="1"/>
  <variable name="X(28,21,213)" index="133632" value="1"/>
  <variable name="X(28,29,101)" index="134473" value="1"/>
  <variable name="X(28,63,347)" index="135672" value="1"/>
  <variable name="X(29,11,382)" index="136660" value="1"/>
  <variable name="X(29,12,294)" index="137525" value="1"/>
  <variable name="X(29,13,580)" index="138764" value="1"/>
  <variable name="X(29,14,936)" index="140073" value="1"/>
  <variable name="X(29,15,643)" index="140733" value="1"/>
  <variable name="X(29,16,101)" index="141144" value="1"/>
  <variable name="X(29,17,185)" index="142181" value="1"/>
  <variable name="X(29,18,409)" index="143358" value="1"/>
  <variable name="X(29,19,187)" index="144089" value="1"/>
  <variable name="X(29,22,363)" index="145218" value="1"/>
  <variable name="X(29,23,464)" index="146272" value="1"/>
  <variable name="X(29,24,557)" index="147318" value="1"/>
  <variable name="X(29,25,619)" index="148333" value="1"/>
  <variable name="X(29,28,395)" index="149062" value="1"/>
  <variable name="X(29,30,337)" index="149957" value="1"/>
  <variable name="X(29,64,348)" index="150921" value="1"/>
  <variable name="X(30,3,694)" index="152220" value="1"/>
  <variable name="X(30,26,337)" index="152816" value="1"/>
  <variable name="X(30,29,936)" index="154368" value="1"/>
  <variable name="X(30,31,82)" index="154467" value="1"/>
  <variable name="X(30,33,884)" index="156222" value="1"/>
  <variable name="X(30,34,723)" index="157014" value="1"/>
  <variable name="X(30,35,923)" index="158167" value="1"/>
  <variable name="X(30,65,892)" index="159089" value="1"/>
  <variable name="X(31,27,871)" index="160021" value="1"/>
  <variable name="X(31,30,884)" index="160987" value="1"/>
  <variable name="X(31,32,688)" index="161744" value="1"/>
  <variable name="X(31,66,82)" index="162091" value="1"/>
  <variable name="X(32,31,884)" index="163846" value="1"/>
  <variable name="X(32,67,688)" index="164603" value="1"/>
  <variable name="X(33,30,892)" index="165760" value="1"/>
  <variable name="X(33,68,884)" index="166705" value="1"/>
  <variable name="X(34,30,923)" index="167697" value="1"/>
  <variable name="X(34,69,723)" index="168450" value="1"/>
  <variable name="X(35,30,936)" index="169616" value="1"/>
  <variable name="X(35,70,923)" index="170556" value="1"/>
  <variable name="C(7,28)" index="170608" value="1"/>
  <variable name="C(7,5)" index="170609" value="2"/>
  <variable name="C(7,9)" index="170610" value="3"/>
  <variable name="C(35,28)" index="170720" value="1"/>
  <variable name="C(35,6)" index="170721" value="2"/>
  <variable name="C(82,30)" index="170911" value="1"/>
  <variable name="C(82,31)" index="170912" value="2"/>
  <variable name="C(101,28)" index="170977" value="1"/>
  <variable name="C(101,29)" index="170978" value="2"/>
  <variable name="C(101,16)" index="170979" value="3"/>
  <variable name="C(123,28)" index="171065" value="1"/>
  <variable name="C(123,8)" index="171066" value="2"/>
  <variable name="C(139,28)" index="171124" value="1"/>
  <variable name="C(139,1)" index="171125" value="2"/>
  <variable name="C(173,28)" index="171256" value="1"/>
  <variable name="C(173,4)" index="171257" value="2"/>
  <variable name="C(185,29)" index="171300" value="1"/>
  <variable name="C(185,17)" index="171301" value="2"/>
  <variable name="C(187,19)" index="171307" value="1"/>
  <variable name="C(213,28)" index="171400" value="1"/>
  <variable name="C(213,21)" index="171401" value="2"/>
  <variable name="C(227,5)" index="171459" value="1"/>
  <variable name="C(269,28)" index="171645" value="1"/>
  <variable name="C(269,20)" index="171646" value="2"/>
  <variable name="C(294,29)" index="171748" value="1"/>
  <variable name="C(294,12)" index="171749" value="2"/>
  <variable name="C(337,29)" index="171899" value="1"/>
  <variable name="C(337,30)" index="171900" value="2"/>
  <variable name="C(337,26)" index="171901" value="3"/>
  <variable name="C(348,29)" index="171940" value="1"/>
  <variable name="C(363,29)" index="171994" value="1"/>
  <variable name="C(363,22)" index="171995" value="2"/>
  <variable name="C(382,29)" index="172066" value="1"/>
  <variable name="C(382,11)" index="172067" value="2"/>
  <variable name="C(395,29)" index="172110" value="1"/>
  <variable name="C(395,28)" index="172111" value="2"/>
  <variable name="C(395,2)" index="172112" value="3"/>
  <variable name="C(409,29)" index="172162" value="1"/>
  <variable name="C(409,18)" index="172163" value="2"/>
  <variable name="C(409,7)" index="172164" value="3"/>
  <variable name="C(409,27)" index="172165" value="4"/>
  <variable name="C(464,29)" index="172356" value="1"/>
  <variable name="C(464,23)" index="172357" value="2"/>
  <variable name="C(482,28)" index="172420" value="1"/>
  <variable name="C(482,7)" index="172421" value="2"/>
  <variable name="C(515,28)" index="172547" value="1"/>
  <variable name="C(515,10)" index="172548" value="2"/>
  <variable name="C(557,29)" index="172710" value="1"/>
  <variable name="C(557,24)" index="172711" value="2"/>
  <variable name="C(580,29)" index="172797" value="1"/>
  <variable name="C(580,13)" index="172798" value="2"/>
  <variable name="C(619,29)" index="172936" value="1"/>
  <variable name="C(619,25)" index="172937" value="2"/>
  <variable name="C(643,29)" index="173026" value="1"/>
  <variable name="C(643,15)" index="173027" value="2"/>
  <variable name="C(688,27)" index="173200" value="1"/>
  <variable name="C(688,31)" index="173201" value="2"/>
  <variable name="C(688,32)" index="173202" value="3"/>
  <variable name="C(694,26)" index="173221" value="1"/>
  <variable name="C(694,30)" index="173222" value="2"/>
  <variable name="C(694,3)" index="173223" value="3"/>
  <variable name="C(723,34)" index="173342" value="1"/>
  <variable name="C(871,27)" index="173846" value="1"/>
  <variable name="C(871,7)" index="173847" value="2"/>
  <variable name="C(871,18)" index="173848" value="3"/>
  <variable name="C(884,31)" index="173903" value="1"/>
  <variable name="C(884,30)" index="173904" value="2"/>
  <variable name="C(884,33)" index="173905" value="3"/>
  <variable name="C(892,30)" index="173935" value="1"/>
  <variable name="C(923,30)" index="174060" value="1"/>
  <variable name="C(923,35)" index="174061" value="2"/>
  <variable name="C(936,30)" index="174119" value="1"/>
  <variable name="C(936,29)" index="174120" value="2"/>
  <variable name="C(936,14)" index="174121" value="3"/>
 </variables>
</CPLEXSolution>
